c User generated cnf file
p cnf 14 33
3 1 -4 0 
1 -9 3 0 
12 -2 6 0 
2 12 -5 0 
14 14 -9 0 
-3 2 12 0 
2 5 -13 0 
9 3 -7 0 
11 -6 7 0 
8 -14 8 0 
-4 6 4 0 
8 -14 2 0 
2 10 -14 0 
-10 14 10 0 
-3 10 10 0 
-7 9 13 0 
11 8 -9 0 
7 -9 6 0 
7 -11 10 0 
9 8 -1 0 
10 5 -11 0 
-9 6 3 0 
6 8 -3 0 
8 2 -5 0 
-14 3 6 0 
13 -1 13 0 
-10 12 1 0 
5 6 -12 0 
4 4 -11 0 
-1 1 14 0 
-6 11 2 0 
-10 3 1 0 
-10 13 1 0 
